Version identifier: 22.1.1.0 | 2022-11-28 | 9160aff4d
CPXPARAM_ClockType                               1
CPXPARAM_Read_DataCheck                          1
CPXPARAM_Threads                                 1
CPXPARAM_TimeLimit                               7200
CPXPARAM_MIP_Tolerances_AbsMIPGap                0
CPXPARAM_MIP_Tolerances_MIPGap                   0
CPXPARAM_MIP_Tolerances_Integrality              0
Tried aggregator 2 times.
MIP Presolve eliminated 464 rows and 0 columns.
MIP Presolve modified 760 coefficients.
Aggregator did 300 substitutions.
Reduced MIP has 1076 rows, 750 columns, and 2862 nonzeros.
Reduced MIP has 750 binaries, 0 generals, 0 SOSs, and 0 indicators.
Presolve time = 0.00 sec. (4.51 ticks)
Found incumbent of value -526.000000 after 0.01 sec. (8.05 ticks)
Probing time = 0.00 sec. (1.35 ticks)
Tried aggregator 1 time.
Detecting symmetries...
MIP Presolve eliminated 100 rows and 0 columns.
Reduced MIP has 976 rows, 750 columns, and 2562 nonzeros.
Reduced MIP has 750 binaries, 0 generals, 0 SOSs, and 0 indicators.
Presolve time = 0.00 sec. (3.08 ticks)
Probing time = 0.01 sec. (1.22 ticks)
Clique table members: 2001.
MIP emphasis: balance optimality and feasibility.
MIP search method: dynamic search.
Parallel mode: none, using 1 thread.
Root relaxation solution time = 0.01 sec. (10.16 ticks)

        Nodes                                         Cuts/
   Node  Left     Objective  IInf  Best Integer    Best Bound    ItCnt     Gap

*     0+    0                         -526.0000      150.0000           128.52%
      0     0      100.0000   312     -526.0000      100.0000      444  119.01%
      0     0      100.0000   337     -526.0000   ZeroHalf: 8      509  119.01%
*     0+    0                           74.0000      100.0000            35.14%
      0     0        cutoff             74.0000      100.0000      509   35.14%
      0     2      100.0000   240       74.0000      100.0000      648   35.14%
Elapsed time = 0.20 sec. (123.57 ticks, tree = 0.01 MB, solutions = 2)
*     5     1      integral     0      100.0000      100.0000     1043    0.00%

Zero-half cuts applied:  4

Root node processing (before b&c):
  Real time             =    0.20 sec. (123.56 ticks)
Sequential b&c:
  Real time             =    0.01 sec. (12.43 ticks)
                          ------------
Total (root+branch&cut) =    0.21 sec. (135.99 ticks)
Solution is feasible.

---------------------
@@@ MIP_optimal
>>> Benchmark flat50-4.cnf k 2 OPT 100 TimeCost 0.3123660087585449 TimeSolve 0.22078561782836914 TimeRead 0.0015773773193359375 TimeTrans 0.09000301361083984
